set Z;
 set Y;
 param A{r in Z, m in Y} default 0, binary;
 var Route{m in Y}, binary;
 minimize cost: sum{m in Y} Route[m];
 subject to covers{r in Z}: sum{m in Y} A[r,m]*Route[m]>=1;
 solve; 
 printf {m in Y:  Route[m] == 1} "%s ", m > "Results.txt";
 data;
set Z:= Z1 Z2 Z3 Z4 Z5 Z6 Z8 Z9 Z10 Z11 ;
set Y:= Y1 Y2 ;
param A := 
[Z1,Y1] 1[Z1,Y2] 1[Z2,Y1] 1[Z2,Y2] 1[Z3,Y1] 1[Z3,Y2] 1[Z4,Y1] 1[Z4,Y2] 1[Z5,Y1] 1[Z5,Y2] 1[Z6,Y2] 1[Z8,Y1] 1[Z8,Y2] 1[Z9,Y1] 1[Z9,Y2] 1[Z10,Y1] 1[Z11,Y1] 1
;end;
